Maximize
F - f1 - f2

Subject to
F - 0y18 - 0y19 - 0y34 - 2y52 - 0y128 - 4y170 - 4y100 - 8y106 - 2y43 - 4y135 - 6y82 - 8y101 - 8y147 - 8y36 - 6y151 - 2y50 - 2y7 - 4y33 - 2y90 - 4y103 - 6y4 = 0
f1 - 0.006507s18 - 0.006507s19 - 0.006507s34 - 0.006507s52 - 0.006507s128 - 0.006507s170 - 0.006507s100 - 0.006507s106 - 0.006507s43 - 0.006507s135 - 0.006507s82 - 0.006507s101 - 0.006507s147 - 0.006507s36 - 0.006507s151 - 0.006507s50 - 0.006507s7 - 0.006507s33 - 0.006507s90 - 0.006507s103 - 0.006507s4  = 0
f2 - 2.85y18 - 2.87y19 - 3.41y34 - 3.71y52 - 2.44y128 - 3.23y170 - 1.73y100 - 1.40y106 - 1.30y43 - 1.31y135 - 1.17y82 - 1.18y101 - 1.16y147 - 1.41y36 - 1.04y151 - 1.53y50 - 1.00y7 - 0.91y33 - 2.42y90 - 0.59y103 - 0.56y4 = 0

x105x128x1 + x105x106x1 + x105x43x1 + x105x82x1 + x105x147x1 + x105x151x1 + x105x50x1 
<= 1
x2x106x1 + x2x43x1 + x2x82x1 + x2x147x1 + x2x151x1 + x2x50x1 
<= 1
x34x106x1 + x34x43x1 + x34x82x1 + x34x147x1 + x34x151x1 + x34x50x1 
<= 1
x128x106x1 + x128x43x1 + x128x82x1 + x128x147x1 + x128x151x1 + x128x50x1 
<= 1
x65x106x1 + x65x43x1 + x65x82x1 + x65x147x1 + x65x151x1 + x65x50x1 
<= 2

x136x18x2 + x136x128x2 + x136x100x2 + x136x106x2 + x136x43x2 + x136x135x2 + x136x82x2 + x136x101x2 + x136x36x2 + x136x33x2 + x136x90x2 + x136x103x2 + x136x4x2 
<= 1
x105x18x2 + x105x128x2 + x105x100x2 + x105x106x2 + x105x43x2 + x105x135x2 + x105x82x2 + x105x101x2 + x105x36x2 + x105x33x2 + x105x90x2 + x105x103x2 + x105x4x2 
<= 1
x18x18x2 + x18x128x2 + x18x100x2 + x18x106x2 + x18x43x2 + x18x135x2 + x18x82x2 + x18x101x2 + x18x36x2 + x18x33x2 + x18x90x2 + x18x103x2 + x18x4x2 
<= 1
x111x100x2 + x111x106x2 + x111x43x2 + x111x135x2 + x111x82x2 + x111x101x2 + x111x36x2 + x111x33x2 + x111x90x2 + x111x103x2 + x111x4x2 
<= 2
x128x100x2 + x128x106x2 + x128x43x2 + x128x135x2 + x128x82x2 + x128x101x2 + x128x36x2 + x128x33x2 + x128x90x2 + x128x103x2 + x128x4x2 
<= 1
x136x18x3 + x136x19x3 + x136x34x3 + x136x170x3 + x136x135x3 + x136x101x3 + x136x147x3 + x136x151x3 + x136x7x3 + x136x4x3 
<= 1
x2x135x3 + x2x101x3 + x2x147x3 + x2x151x3 + x2x7x3 + x2x4x3 
<= 1
x34x135x3 + x34x101x3 + x34x147x3 + x34x151x3 + x34x7x3 + x34x4x3 
<= 1
x18x18x3 + x18x19x3 + x18x135x3 + x18x101x3 + x18x147x3 + x18x151x3 + x18x7x3 + x18x4x3 
<= 1
x19x19x3 + x19x135x3 + x19x101x3 + x19x147x3 + x19x151x3 + x19x7x3 + x19x4x3 
<= 2

x136x18x2 + x105x18x2 + x18x18x2 
- x18x0x2
- x18x100x2 - x18x106x2 - x18x43x2 - x18x135x2 - x18x82x2 - x18x101x2 - x18x36x2 - x18x33x2 - x18x90x2 - x18x103x2 - x18x4x2 
= 0
x136x18x3 + x18x18x3 
- x18x0x3
- x18x135x3 - x18x101x3 - x18x147x3 - x18x151x3 - x18x7x3 - x18x4x3 
= 0



x136x19x3 + x18x19x3 + x19x19x3 
- x19x0x3
- x19x135x3 - x19x101x3 - x19x147x3 - x19x151x3 - x19x7x3 - x19x4x3 
= 0


- x34x106x1 - x34x43x1 - x34x82x1 - x34x147x1 - x34x151x1 - x34x50x1 
= 0

x136x34x3 
- x34x0x3
- x34x135x3 - x34x101x3 - x34x147x3 - x34x151x3 - x34x7x3 - x34x4x3 
= 0




- x52x135x3 - x52x101x3 - x52x147x3 - x52x151x3 - x52x7x3 - x52x4x3 
= 0

x105x128x1 
- x128x0x1
- x128x106x1 - x128x43x1 - x128x82x1 - x128x147x1 - x128x151x1 - x128x50x1 
= 0
x136x128x2 + x105x128x2 + x18x128x2 
- x128x0x2
- x128x100x2 - x128x106x2 - x128x43x2 - x128x135x2 - x128x82x2 - x128x101x2 - x128x36x2 - x128x33x2 - x128x90x2 - x128x103x2 - x128x4x2 
= 0




x136x170x3 
- x170x0x3
- x170x135x3 - x170x101x3 - x170x147x3 - x170x151x3 - x170x7x3 - x170x4x3 
= 0


x136x100x2 + x105x100x2 + x18x100x2 + x111x100x2 + x128x100x2 + x18x100x2 + x128x100x2 
- x100x0x2
- x100x106x2 - x100x43x2 - x100x135x2 - x100x82x2 - x100x101x2 - x100x36x2 - x100x33x2 - x100x90x2 - x100x103x2 - x100x4x2 
= 0


x105x106x1 + x2x106x1 + x34x106x1 + x128x106x1 + x65x106x1 + x34x106x1 + x128x106x1 
- x106x0x1
- x106x43x1 - x106x82x1 - x106x147x1 - x106x151x1 - x106x50x1 
= 0
x136x106x2 + x105x106x2 + x18x106x2 + x111x106x2 + x128x106x2 + x18x106x2 + x128x106x2 + x100x106x2 
- x106x0x2
- x106x43x2 - x106x135x2 - x106x82x2 - x106x101x2 - x106x36x2 - x106x33x2 - x106x90x2 - x106x103x2 - x106x4x2 
= 0


x105x43x1 + x2x43x1 + x34x43x1 + x128x43x1 + x65x43x1 + x34x43x1 + x128x43x1 + x106x43x1 
- x43x0x1
- x43x82x1 - x43x147x1 - x43x151x1 - x43x50x1 
= 0
x136x43x2 + x105x43x2 + x18x43x2 + x111x43x2 + x128x43x2 + x18x43x2 + x128x43x2 + x100x43x2 + x106x43x2 
- x43x0x2
- x43x82x2 - x43x101x2 - x43x36x2 - x43x33x2 - x43x90x2 - x43x103x2 - x43x4x2 
= 0



x136x135x2 + x105x135x2 + x18x135x2 + x111x135x2 + x128x135x2 + x18x135x2 + x128x135x2 + x100x135x2 + x106x135x2 
- x135x0x2
- x135x82x2 - x135x33x2 - x135x90x2 - x135x103x2 - x135x4x2 
= 0
x136x135x3 + x2x135x3 + x34x135x3 + x18x135x3 + x19x135x3 + x18x135x3 + x19x135x3 + x34x135x3 + x52x135x3 + x170x135x3 
- x135x0x3
- x135x151x3 - x135x7x3 - x135x4x3 
= 0

x105x82x1 + x2x82x1 + x34x82x1 + x128x82x1 + x65x82x1 + x34x82x1 + x128x82x1 + x106x82x1 + x43x82x1 
- x82x0x1
- x82x151x1 
= 0
x136x82x2 + x105x82x2 + x18x82x2 + x111x82x2 + x128x82x2 + x18x82x2 + x128x82x2 + x100x82x2 + x106x82x2 + x43x82x2 + x135x82x2 
- x82x0x2
- x82x33x2 - x82x103x2 - x82x4x2 
= 0



x136x101x2 + x105x101x2 + x18x101x2 + x111x101x2 + x128x101x2 + x18x101x2 + x128x101x2 + x100x101x2 + x106x101x2 + x43x101x2 
- x101x0x2
- x101x33x2 - x101x103x2 - x101x4x2 
= 0
x136x101x3 + x2x101x3 + x34x101x3 + x18x101x3 + x19x101x3 + x18x101x3 + x19x101x3 + x34x101x3 + x52x101x3 + x170x101x3 
- x101x0x3
- x101x147x3 - x101x151x3 - x101x7x3 - x101x4x3 
= 0

x105x147x1 + x2x147x1 + x34x147x1 + x128x147x1 + x65x147x1 + x34x147x1 + x128x147x1 + x106x147x1 + x43x147x1 
- x147x0x1
- x147x151x1 
= 0

x136x147x3 + x2x147x3 + x34x147x3 + x18x147x3 + x19x147x3 + x18x147x3 + x19x147x3 + x34x147x3 + x52x147x3 + x170x147x3 + x101x147x3 
- x147x0x3
- x147x151x3 - x147x7x3 - x147x4x3 
= 0


x136x36x2 + x105x36x2 + x18x36x2 + x111x36x2 + x128x36x2 + x18x36x2 + x128x36x2 + x100x36x2 + x106x36x2 + x43x36x2 
- x36x0x2
- x36x33x2 - x36x103x2 - x36x4x2 
= 0


x105x151x1 + x2x151x1 + x34x151x1 + x128x151x1 + x65x151x1 + x34x151x1 + x128x151x1 + x106x151x1 + x43x151x1 + x82x151x1 + x147x151x1 
- x151x0x1

= 0

x136x151x3 + x2x151x3 + x34x151x3 + x18x151x3 + x19x151x3 + x18x151x3 + x19x151x3 + x34x151x3 + x52x151x3 + x170x151x3 + x135x151x3 + x101x151x3 + x147x151x3 
- x151x0x3
- x151x7x3 - x151x4x3 
= 0

x105x50x1 + x2x50x1 + x34x50x1 + x128x50x1 + x65x50x1 + x34x50x1 + x128x50x1 + x106x50x1 + x43x50x1 
- x50x0x1

= 0





x136x7x3 + x2x7x3 + x34x7x3 + x18x7x3 + x19x7x3 + x18x7x3 + x19x7x3 + x34x7x3 + x52x7x3 + x170x7x3 + x135x7x3 + x101x7x3 + x147x7x3 + x151x7x3 
- x7x0x3
- x7x4x3 
= 0


x136x33x2 + x105x33x2 + x18x33x2 + x111x33x2 + x128x33x2 + x18x33x2 + x128x33x2 + x100x33x2 + x106x33x2 + x43x33x2 + x135x33x2 + x82x33x2 + x101x33x2 + x36x33x2 
- x33x0x2
- x33x103x2 - x33x4x2 
= 0



x136x90x2 + x105x90x2 + x18x90x2 + x111x90x2 + x128x90x2 + x18x90x2 + x128x90x2 + x100x90x2 + x106x90x2 + x43x90x2 + x135x90x2 
- x90x0x2

= 0



x136x103x2 + x105x103x2 + x18x103x2 + x111x103x2 + x128x103x2 + x18x103x2 + x128x103x2 + x100x103x2 + x106x103x2 + x43x103x2 + x135x103x2 + x82x103x2 + x101x103x2 + x36x103x2 + x33x103x2 
- x103x0x2

= 0



x136x4x2 + x105x4x2 + x18x4x2 + x111x4x2 + x128x4x2 + x18x4x2 + x128x4x2 + x100x4x2 + x106x4x2 + x43x4x2 + x135x4x2 + x82x4x2 + x101x4x2 + x36x4x2 + x33x4x2 
- x4x0x2

= 0
x136x4x3 + x2x4x3 + x34x4x3 + x18x4x3 + x19x4x3 + x18x4x3 + x19x4x3 + x34x4x3 + x52x4x3 + x170x4x3 + x135x4x3 + x101x4x3 + x147x4x3 + x151x4x3 + x7x4x3 
- x4x0x3

= 0

1y18 - x136x18x2 - x105x18x2 - x18x18x2 = 0
1y18 - x136x18x3 - x18x18x3 = 0
2y19 - x136x19x3 - x18x19x3 - x19x19x3 = 0
1y34 = 0
1y34 - x136x34x3 = 0
2y52 = 0
1y128 - x105x128x1 = 0
1y128 - x136x128x2 - x105x128x2 - x18x128x2 = 0
2y170 - x136x170x3 = 0
2y100 - x136x100x2 - x105x100x2 - x18x100x2 - x111x100x2 - x128x100x2 - x18x100x2 - x128x100x2 = 0
1y106 - x105x106x1 - x2x106x1 - x34x106x1 - x128x106x1 - x65x106x1 - x34x106x1 - x128x106x1 = 0
1y106 - x136x106x2 - x105x106x2 - x18x106x2 - x111x106x2 - x128x106x2 - x18x106x2 - x128x106x2 - x100x106x2 = 0
1y43 - x105x43x1 - x2x43x1 - x34x43x1 - x128x43x1 - x65x43x1 - x34x43x1 - x128x43x1 - x106x43x1 = 0
1y43 - x136x43x2 - x105x43x2 - x18x43x2 - x111x43x2 - x128x43x2 - x18x43x2 - x128x43x2 - x100x43x2 - x106x43x2 = 0
1y135 - x136x135x2 - x105x135x2 - x18x135x2 - x111x135x2 - x128x135x2 - x18x135x2 - x128x135x2 - x100x135x2 - x106x135x2 = 0
1y135 - x136x135x3 - x2x135x3 - x34x135x3 - x18x135x3 - x19x135x3 - x18x135x3 - x19x135x3 - x34x135x3 - x52x135x3 - x170x135x3 = 0
1y82 - x105x82x1 - x2x82x1 - x34x82x1 - x128x82x1 - x65x82x1 - x34x82x1 - x128x82x1 - x106x82x1 - x43x82x1 = 0
1y82 - x136x82x2 - x105x82x2 - x18x82x2 - x111x82x2 - x128x82x2 - x18x82x2 - x128x82x2 - x100x82x2 - x106x82x2 - x43x82x2 - x135x82x2 = 0
1y101 - x136x101x2 - x105x101x2 - x18x101x2 - x111x101x2 - x128x101x2 - x18x101x2 - x128x101x2 - x100x101x2 - x106x101x2 - x43x101x2 = 0
1y101 - x136x101x3 - x2x101x3 - x34x101x3 - x18x101x3 - x19x101x3 - x18x101x3 - x19x101x3 - x34x101x3 - x52x101x3 - x170x101x3 = 0
1y147 - x105x147x1 - x2x147x1 - x34x147x1 - x128x147x1 - x65x147x1 - x34x147x1 - x128x147x1 - x106x147x1 - x43x147x1 = 0
1y147 - x136x147x3 - x2x147x3 - x34x147x3 - x18x147x3 - x19x147x3 - x18x147x3 - x19x147x3 - x34x147x3 - x52x147x3 - x170x147x3 - x101x147x3 = 0
2y36 - x136x36x2 - x105x36x2 - x18x36x2 - x111x36x2 - x128x36x2 - x18x36x2 - x128x36x2 - x100x36x2 - x106x36x2 - x43x36x2 = 0
1y151 - x105x151x1 - x2x151x1 - x34x151x1 - x128x151x1 - x65x151x1 - x34x151x1 - x128x151x1 - x106x151x1 - x43x151x1 - x82x151x1 - x147x151x1 = 0
1y151 - x136x151x3 - x2x151x3 - x34x151x3 - x18x151x3 - x19x151x3 - x18x151x3 - x19x151x3 - x34x151x3 - x52x151x3 - x170x151x3 - x135x151x3 - x101x151x3 - x147x151x3 = 0
2y50 - x105x50x1 - x2x50x1 - x34x50x1 - x128x50x1 - x65x50x1 - x34x50x1 - x128x50x1 - x106x50x1 - x43x50x1 = 0
2y7 - x136x7x3 - x2x7x3 - x34x7x3 - x18x7x3 - x19x7x3 - x18x7x3 - x19x7x3 - x34x7x3 - x52x7x3 - x170x7x3 - x135x7x3 - x101x7x3 - x147x7x3 - x151x7x3 = 0
2y33 - x136x33x2 - x105x33x2 - x18x33x2 - x111x33x2 - x128x33x2 - x18x33x2 - x128x33x2 - x100x33x2 - x106x33x2 - x43x33x2 - x135x33x2 - x82x33x2 - x101x33x2 - x36x33x2 = 0
2y90 - x136x90x2 - x105x90x2 - x18x90x2 - x111x90x2 - x128x90x2 - x18x90x2 - x128x90x2 - x100x90x2 - x106x90x2 - x43x90x2 - x135x90x2 = 0
2y103 - x136x103x2 - x105x103x2 - x18x103x2 - x111x103x2 - x128x103x2 - x18x103x2 - x128x103x2 - x100x103x2 - x106x103x2 - x43x103x2 - x135x103x2 - x82x103x2 - x101x103x2 - x36x103x2 - x33x103x2 = 0
1y4 - x136x4x2 - x105x4x2 - x18x4x2 - x111x4x2 - x128x4x2 - x18x4x2 - x128x4x2 - x100x4x2 - x106x4x2 - x43x4x2 - x135x4x2 - x82x4x2 - x101x4x2 - x36x4x2 - x33x4x2 = 0
1y4 - x136x4x3 - x2x4x3 - x34x4x3 - x18x4x3 - x19x4x3 - x18x4x3 - x19x4x3 - x34x4x3 - x52x4x3 - x170x4x3 - x135x4x3 - x101x4x3 - x147x4x3 - x151x4x3 - x7x4x3 = 0

s136 - s18 + 6.319197z136z18z2 <= 5.20
s136 - s18 + 6.319197z136z18z3 <= 5.20
s136 - s19 + 6.418911z136z19z3 <= 5.20
s136 - s34 + 6.416063z136z34z3 <= 5.20
s136 - s128 + 6.387691z136z128z2 <= 5.20
s136 - s170 + 6.445768z136z170z3 <= 5.20
s136 - s100 + 6.349419z136z100z2 <= 5.20
s136 - s106 + 6.471368z136z106z2 <= 5.20
s136 - s43 + 6.462746z136z43z2 <= 5.20
s136 - s135 + 6.521226z136z135z2 <= 5.20
s136 - s135 + 6.521226z136z135z3 <= 5.20
s136 - s82 + 6.480358z136z82z2 <= 5.20
s136 - s101 + 6.472345z136z101z2 <= 5.20
s136 - s101 + 6.472345z136z101z3 <= 5.20
s136 - s147 + 6.463167z136z147z3 <= 5.20
s136 - s36 + 6.366874z136z36z2 <= 5.20
s136 - s151 + 6.474370z136z151z3 <= 5.20
s136 - s7 + 6.459097z136z7z3 <= 5.20
s136 - s33 + 6.493555z136z33z2 <= 5.20
s136 - s90 + 6.611753z136z90z2 <= 5.20
s136 - s103 + 6.599123z136z103z2 <= 5.20
s136 - s4 + 6.638810z136z4z2 <= 5.20
s136 - s4 + 6.638810z136z4z3 <= 5.20
s105 - s18 + 6.350185z105z18z2 <= 5.23
s105 - s128 + 6.392344z105z128z1 <= 5.23
s105 - s128 + 6.392344z105z128z2 <= 5.23
s105 - s100 + 6.333495z105z100z2 <= 5.23
s105 - s106 + 6.456765z105z106z1 <= 5.23
s105 - s106 + 6.456765z105z106z2 <= 5.23
s105 - s43 + 6.447153z105z43z1 <= 5.23
s105 - s43 + 6.447153z105z43z2 <= 5.23
s105 - s135 + 6.507288z105z135z2 <= 5.23
s105 - s82 + 6.464473z105z82z1 <= 5.23
s105 - s82 + 6.464473z105z82z2 <= 5.23
s105 - s101 + 6.456372z105z101z2 <= 5.23
s105 - s147 + 6.447051z105z147z1 <= 5.23
s105 - s36 + 6.352927z105z36z2 <= 5.23
s105 - s151 + 6.458230z105z151z1 <= 5.23
s105 - s50 + 6.598782z105z50z1 <= 5.23
s105 - s33 + 6.477476z105z33z2 <= 5.23
s105 - s90 + 6.614650z105z90z2 <= 5.23
s105 - s103 + 6.583019z105z103z2 <= 5.23
s105 - s4 + 6.622938z105z4z2 <= 5.23
s2 - s106 + 7.269706z2z106z1 <= 5.97
s2 - s43 + 7.244289z2z43z1 <= 5.97
s2 - s135 + 7.314383z2z135z3 <= 5.97
s2 - s82 + 7.245099z2z82z1 <= 5.97
s2 - s101 + 7.236391z2z101z3 <= 5.97
s2 - s147 + 7.221533z2z147z1 <= 5.97
s2 - s147 + 7.221533z2z147z3 <= 5.97
s2 - s151 + 7.214720z2z151z1 <= 5.97
s2 - s151 + 7.214720z2z151z3 <= 5.97
s2 - s50 + 7.432153z2z50z1 <= 5.97
s2 - s7 + 7.184908z2z7z3 <= 5.97
s2 - s4 + 7.362200z2z4z3 <= 5.97
s34 - s106 + 7.146729z34z106z1 <= 5.83
s34 - s43 + 7.157293z34z43z1 <= 5.83
s34 - s135 + 7.175062z34z135z3 <= 5.83
s34 - s82 + 7.178224z34z82z1 <= 5.83
s34 - s101 + 7.175127z34z101z3 <= 5.83
s34 - s147 + 7.175451z34z147z1 <= 5.83
s34 - s147 + 7.175451z34z147z3 <= 5.83
s34 - s151 + 7.193618z34z151z1 <= 5.83
s34 - s151 + 7.193618z34z151z3 <= 5.83
s34 - s50 + 7.200442z34z50z1 <= 5.83
s34 - s7 + 7.196558z34z7z3 <= 5.83
s34 - s4 + 7.310965z34z4z3 <= 5.83
s18 - s18 + 6.550000z18z18z2 <= 5.55
s18 - s18 + 6.550000z18z18z3 <= 5.55
s18 - s19 + 6.654350z18z19z3 <= 5.55
s18 - s128 + 6.651544z18z128z2 <= 5.55
s18 - s100 + 6.714655z18z100z2 <= 5.55
s18 - s106 + 6.797476z18z106z2 <= 5.55
s18 - s43 + 6.801043z18z43z2 <= 5.55
s18 - s135 + 6.836977z18z135z2 <= 5.55
s18 - s135 + 6.836977z18z135z3 <= 5.55
s18 - s82 + 6.821948z18z82z2 <= 5.55
s18 - s101 + 6.816833z18z101z2 <= 5.55
s18 - s101 + 6.816833z18z101z3 <= 5.55
s18 - s147 + 6.813734z18z147z3 <= 5.55
s18 - s36 + 6.762603z18z36z2 <= 5.55
s18 - s151 + 6.830397z18z151z3 <= 5.55
s18 - s7 + 6.827529z18z7z3 <= 5.55
s18 - s33 + 6.851478z18z33z2 <= 5.55
s18 - s90 + 6.861698z18z90z2 <= 5.55
s18 - s103 + 6.939473z18z103z2 <= 5.55
s18 - s4 + 6.970212z18z4z2 <= 5.55
s18 - s4 + 6.970212z18z4z3 <= 5.55
s19 - s19 + 6.730000z19z19z3 <= 5.73
s19 - s135 + 6.982982z19z135z3 <= 5.73
s19 - s101 + 6.992721z19z101z3 <= 5.73
s19 - s147 + 6.995498z19z147z3 <= 5.73
s19 - s151 + 7.014254z19z151z3 <= 5.73
s19 - s7 + 7.022271z19z7z3 <= 5.73
s19 - s4 + 7.118273z19z4z3 <= 5.73
s111 - s100 + 6.908885z111z100z2 <= 5.73
s111 - s106 + 7.023636z111z106z2 <= 5.73
s111 - s43 + 7.003577z111z43z2 <= 5.73
s111 - s135 + 7.074932z111z135z2 <= 5.73
s111 - s82 + 7.013000z111z82z2 <= 5.73
s111 - s101 + 7.003577z111z101z2 <= 5.73
s111 - s36 + 6.876211z111z36z2 <= 5.73
s111 - s33 + 7.003658z111z33z2 <= 5.73
s111 - s90 + 7.231907z111z90z2 <= 5.73
s111 - s103 + 7.113029z111z103z2 <= 5.73
s111 - s4 + 7.159004z111z4z2 <= 5.73
s128 - s100 + 7.087636z128z100z2 <= 5.95
s128 - s106 + 7.117300z128z106z1 <= 5.95
s128 - s106 + 7.117300z128z106z2 <= 5.95
s128 - s43 + 7.128777z128z43z1 <= 5.95
s128 - s43 + 7.128777z128z43z2 <= 5.95
s128 - s135 + 7.147810z128z135z2 <= 5.95
s128 - s82 + 7.149510z128z82z1 <= 5.95
s128 - s82 + 7.149510z128z82z2 <= 5.95
s128 - s101 + 7.147011z128z101z2 <= 5.95
s128 - s147 + 7.148718z128z147z1 <= 5.95
s128 - s36 + 7.144595z128z36z2 <= 5.95
s128 - s151 + 7.167329z128z151z1 <= 5.95
s128 - s50 + 7.195316z128z50z1 <= 5.95
s128 - s33 + 7.187498z128z33z2 <= 5.95
s128 - s90 + 7.176749z128z90z2 <= 5.95
s128 - s103 + 7.258514z128z103z2 <= 5.95
s128 - s4 + 7.283638z128z4z2 <= 5.95
s65 - s106 + 7.217212z65z106z1 <= 5.85
s65 - s43 + 7.190588z65z43z1 <= 5.85
s65 - s82 + 7.185725z65z82z1 <= 5.85
s65 - s147 + 7.164466z65z147z1 <= 5.85
s65 - s151 + 7.152655z65z151z1 <= 5.85
s65 - s50 + 7.371749z65z50z1 <= 5.85
s18 - s100 + 7.714655z18z100z2 <= 6.55
s18 - s106 + 7.797476z18z106z2 <= 6.55
s18 - s43 + 7.801043z18z43z2 <= 6.55
s18 - s135 + 7.836977z18z135z2 <= 6.55
s18 - s135 + 7.836977z18z135z3 <= 6.55
s18 - s82 + 7.821948z18z82z2 <= 6.55
s18 - s101 + 7.816833z18z101z2 <= 6.55
s18 - s101 + 7.816833z18z101z3 <= 6.55
s18 - s147 + 7.813734z18z147z3 <= 6.55
s18 - s36 + 7.762603z18z36z2 <= 6.55
s18 - s151 + 7.830397z18z151z3 <= 6.55
s18 - s7 + 7.827529z18z7z3 <= 6.55
s18 - s33 + 7.851478z18z33z2 <= 6.55
s18 - s90 + 7.861698z18z90z2 <= 6.55
s18 - s103 + 7.939473z18z103z2 <= 6.55
s18 - s4 + 7.970212z18z4z2 <= 6.55
s18 - s4 + 7.970212z18z4z3 <= 6.55
s19 - s135 + 7.982982z19z135z3 <= 6.73
s19 - s101 + 7.992721z19z101z3 <= 6.73
s19 - s147 + 7.995498z19z147z3 <= 6.73
s19 - s151 + 8.014254z19z151z3 <= 6.73
s19 - s7 + 8.022271z19z7z3 <= 6.73
s19 - s4 + 8.118273z19z4z3 <= 6.73
s34 - s106 + 7.734466z34z106z1 <= 6.42
s34 - s43 + 7.745030z34z43z1 <= 6.42
s34 - s135 + 7.762799z34z135z3 <= 6.42
s34 - s82 + 7.765961z34z82z1 <= 6.42
s34 - s101 + 7.762864z34z101z3 <= 6.42
s34 - s147 + 7.763188z34z147z1 <= 6.42
s34 - s147 + 7.763188z34z147z3 <= 6.42
s34 - s151 + 7.781355z34z151z1 <= 6.42
s34 - s151 + 7.781355z34z151z3 <= 6.42
s34 - s50 + 7.788179z34z50z1 <= 6.42
s34 - s7 + 7.784296z34z7z3 <= 6.42
s34 - s4 + 7.898702z34z4z3 <= 6.42
s52 - s135 + 7.561995z52z135z3 <= 6.16
s52 - s101 + 7.550157z52z101z3 <= 6.16
s52 - s147 + 7.547929z52z147z3 <= 6.16
s52 - s151 + 7.564969z52z151z3 <= 6.16
s52 - s7 + 7.562768z52z7z3 <= 6.16
s52 - s4 + 7.697484z52z4z3 <= 6.16
s128 - s100 + 7.964990z128z100z2 <= 6.83
s128 - s106 + 7.994655z128z106z1 <= 6.83
s128 - s106 + 7.994655z128z106z2 <= 6.83
s128 - s43 + 8.006131z128z43z1 <= 6.83
s128 - s43 + 8.006131z128z43z2 <= 6.83
s128 - s135 + 8.025164z128z135z2 <= 6.83
s128 - s82 + 8.026864z128z82z1 <= 6.83
s128 - s82 + 8.026864z128z82z2 <= 6.83
s128 - s101 + 8.024364z128z101z2 <= 6.83
s128 - s147 + 8.026073z128z147z1 <= 6.83
s128 - s36 + 8.021949z128z36z2 <= 6.83
s128 - s151 + 8.044683z128z151z1 <= 6.83
s128 - s50 + 8.072670z128z50z1 <= 6.83
s128 - s33 + 8.064852z128z33z2 <= 6.83
s128 - s90 + 8.054103z128z90z2 <= 6.83
s128 - s103 + 8.135868z128z103z2 <= 6.83
s128 - s4 + 8.160992z128z4z2 <= 6.83
s170 - s135 + 7.968256z170z135z3 <= 6.66
s170 - s101 + 7.980069z170z101z3 <= 6.66
s170 - s147 + 7.982766z170z147z3 <= 6.66
s170 - s151 + 8.001500z170z151z3 <= 6.66
s170 - s7 + 8.008966z170z7z3 <= 6.66
s170 - s4 + 8.102718z170z4z3 <= 6.66
s100 - s106 + 8.385787z100z106z2 <= 7.26
s100 - s43 + 8.373920z100z43z2 <= 7.26
s100 - s135 + 8.437514z100z135z2 <= 7.26
s100 - s82 + 8.390980z100z82z2 <= 7.26
s100 - s101 + 8.382928z100z101z2 <= 7.26
s100 - s36 + 8.316960z100z36z2 <= 7.26
s100 - s33 + 8.406818z100z33z2 <= 7.26
s100 - s90 + 8.586871z100z90z2 <= 7.26
s100 - s103 + 8.509890z100z103z2 <= 7.26
s100 - s4 + 8.549444z100z4z2 <= 7.26
s106 - s43 + 8.416666z106z43z1 <= 7.39
s106 - s43 + 8.416666z106z43z2 <= 7.39
s106 - s135 + 8.442068z106z135z2 <= 7.39
s106 - s82 + 8.428873z106z82z1 <= 7.39
s106 - s82 + 8.428873z106z82z2 <= 7.39
s106 - s101 + 8.432163z106z101z2 <= 7.39
s106 - s147 + 8.443748z106z147z1 <= 7.39
s106 - s36 + 8.538024z106z36z2 <= 7.39
s106 - s151 + 8.459602z106z151z1 <= 7.39
s106 - s50 + 8.553978z106z50z1 <= 7.39
s106 - s33 + 8.473533z106z33z2 <= 7.39
s106 - s90 + 8.646472z106z90z2 <= 7.39
s106 - s103 + 8.532516z106z103z2 <= 7.39
s106 - s4 + 8.563461z106z4z2 <= 7.39
s43 - s82 + 8.471082z43z82z1 <= 7.45
s43 - s82 + 8.471082z43z82z2 <= 7.45
s43 - s101 + 8.468856z43z101z2 <= 7.45
s43 - s147 + 8.477488z43z147z1 <= 7.45
s43 - s36 + 8.577366z43z36z2 <= 7.45
s43 - s151 + 8.494721z43z151z1 <= 7.45
s43 - s50 + 8.638207z43z50z1 <= 7.45
s43 - s33 + 8.511463z43z33z2 <= 7.45
s43 - s90 + 8.732842z43z90z2 <= 7.45
s43 - s103 + 8.590000z43z103z2 <= 7.45
s43 - s4 + 8.626509z43z4z2 <= 7.45
s135 - s82 + 8.539602z135z82z2 <= 7.47
s135 - s151 + 8.571980z135z151z3 <= 7.47
s135 - s7 + 8.600979z135z7z3 <= 7.47
s135 - s33 + 8.576667z135z33z2 <= 7.47
s135 - s90 + 8.704094z135z90z2 <= 7.47
s135 - s103 + 8.586618z135z103z2 <= 7.47
s135 - s4 + 8.605973z135z4z2 <= 7.47
s135 - s4 + 8.605973z135z4z3 <= 7.47
s82 - s151 + 8.573334z82z151z1 <= 7.54
s82 - s33 + 8.584722z82z33z2 <= 7.54
s82 - s103 + 8.660185z82z103z2 <= 7.54
s82 - s4 + 8.698465z82z4z2 <= 7.54
s101 - s147 + 8.554907z101z147z3 <= 7.54
s101 - s151 + 8.567488z101z151z3 <= 7.54
s101 - s7 + 8.593748z101z7z3 <= 7.54
s101 - s33 + 8.582687z101z33z2 <= 7.54
s101 - s103 + 8.667366z101z103z2 <= 7.54
s101 - s4 + 8.706667z101z4z2 <= 7.54
s101 - s4 + 8.706667z101z4z3 <= 7.54
s147 - s151 + 8.578856z147z151z1 <= 7.56
s147 - s151 + 8.578856z147z151z3 <= 7.56
s147 - s7 + 8.600000z147z7z3 <= 7.56
s147 - s4 + 8.737138z147z4z3 <= 7.56
s36 - s33 + 8.734989z36z33z2 <= 7.60
s36 - s103 + 8.845130z36z103z2 <= 7.60
s36 - s4 + 8.889214z36z4z2 <= 7.60
s151 - s7 + 8.689814z151z7z3 <= 7.66
s151 - s4 + 8.829967z151z4z3 <= 7.66
s7 - s4 + 8.934364z7z4z3 <= 7.74
s33 - s103 + 8.860353z33z103z2 <= 7.75
s33 - s4 + 8.905492z33z4z2 <= 7.75

x136x18x2 - 1z136z18z2 <= 0
x136x18x3 - 1z136z18z3 <= 0
x136x19x3 - 2z136z19z3 <= 0
x136x34x3 - 1z136z34z3 <= 0
x136x128x2 - 1z136z128z2 <= 0
x136x170x3 - 2z136z170z3 <= 0
x136x100x2 - 2z136z100z2 <= 0
x136x106x2 - 1z136z106z2 <= 0
x136x43x2 - 1z136z43z2 <= 0
x136x135x2 - 1z136z135z2 <= 0
x136x135x3 - 1z136z135z3 <= 0
x136x82x2 - 1z136z82z2 <= 0
x136x101x2 - 1z136z101z2 <= 0
x136x101x3 - 1z136z101z3 <= 0
x136x147x3 - 1z136z147z3 <= 0
x136x36x2 - 2z136z36z2 <= 0
x136x151x3 - 1z136z151z3 <= 0
x136x7x3 - 2z136z7z3 <= 0
x136x33x2 - 2z136z33z2 <= 0
x136x90x2 - 2z136z90z2 <= 0
x136x103x2 - 2z136z103z2 <= 0
x136x4x2 - 1z136z4z2 <= 0
x136x4x3 - 1z136z4z3 <= 0
x105x18x2 - 1z105z18z2 <= 0
x105x128x1 - 1z105z128z1 <= 0
x105x128x2 - 1z105z128z2 <= 0
x105x100x2 - 2z105z100z2 <= 0
x105x106x1 - 1z105z106z1 <= 0
x105x106x2 - 1z105z106z2 <= 0
x105x43x1 - 1z105z43z1 <= 0
x105x43x2 - 1z105z43z2 <= 0
x105x135x2 - 1z105z135z2 <= 0
x105x82x1 - 1z105z82z1 <= 0
x105x82x2 - 1z105z82z2 <= 0
x105x101x2 - 1z105z101z2 <= 0
x105x147x1 - 1z105z147z1 <= 0
x105x36x2 - 2z105z36z2 <= 0
x105x151x1 - 1z105z151z1 <= 0
x105x50x1 - 2z105z50z1 <= 0
x105x33x2 - 2z105z33z2 <= 0
x105x90x2 - 2z105z90z2 <= 0
x105x103x2 - 2z105z103z2 <= 0
x105x4x2 - 1z105z4z2 <= 0
x2x106x1 - 1z2z106z1 <= 0
x2x43x1 - 1z2z43z1 <= 0
x2x135x3 - 1z2z135z3 <= 0
x2x82x1 - 1z2z82z1 <= 0
x2x101x3 - 1z2z101z3 <= 0
x2x147x1 - 1z2z147z1 <= 0
x2x147x3 - 1z2z147z3 <= 0
x2x151x1 - 1z2z151z1 <= 0
x2x151x3 - 1z2z151z3 <= 0
x2x50x1 - 2z2z50z1 <= 0
x2x7x3 - 2z2z7z3 <= 0
x2x4x3 - 1z2z4z3 <= 0
x34x106x1 - 1z34z106z1 <= 0
x34x43x1 - 1z34z43z1 <= 0
x34x135x3 - 1z34z135z3 <= 0
x34x82x1 - 1z34z82z1 <= 0
x34x101x3 - 1z34z101z3 <= 0
x34x147x1 - 1z34z147z1 <= 0
x34x147x3 - 1z34z147z3 <= 0
x34x151x1 - 1z34z151z1 <= 0
x34x151x3 - 1z34z151z3 <= 0
x34x50x1 - 2z34z50z1 <= 0
x34x7x3 - 2z34z7z3 <= 0
x34x4x3 - 1z34z4z3 <= 0
x18x18x2 - 1z18z18z2 <= 0
x18x18x3 - 1z18z18z3 <= 0
x18x19x3 - 2z18z19z3 <= 0
x18x128x2 - 1z18z128z2 <= 0
x18x100x2 - 2z18z100z2 <= 0
x18x106x2 - 1z18z106z2 <= 0
x18x43x2 - 1z18z43z2 <= 0
x18x135x2 - 1z18z135z2 <= 0
x18x135x3 - 1z18z135z3 <= 0
x18x82x2 - 1z18z82z2 <= 0
x18x101x2 - 1z18z101z2 <= 0
x18x101x3 - 1z18z101z3 <= 0
x18x147x3 - 1z18z147z3 <= 0
x18x36x2 - 2z18z36z2 <= 0
x18x151x3 - 1z18z151z3 <= 0
x18x7x3 - 2z18z7z3 <= 0
x18x33x2 - 2z18z33z2 <= 0
x18x90x2 - 2z18z90z2 <= 0
x18x103x2 - 2z18z103z2 <= 0
x18x4x2 - 1z18z4z2 <= 0
x18x4x3 - 1z18z4z3 <= 0
x19x19x3 - 2z19z19z3 <= 0
x19x135x3 - 1z19z135z3 <= 0
x19x101x3 - 1z19z101z3 <= 0
x19x147x3 - 1z19z147z3 <= 0
x19x151x3 - 1z19z151z3 <= 0
x19x7x3 - 2z19z7z3 <= 0
x19x4x3 - 1z19z4z3 <= 0
x111x100x2 - 2z111z100z2 <= 0
x111x106x2 - 1z111z106z2 <= 0
x111x43x2 - 1z111z43z2 <= 0
x111x135x2 - 1z111z135z2 <= 0
x111x82x2 - 1z111z82z2 <= 0
x111x101x2 - 1z111z101z2 <= 0
x111x36x2 - 2z111z36z2 <= 0
x111x33x2 - 2z111z33z2 <= 0
x111x90x2 - 2z111z90z2 <= 0
x111x103x2 - 2z111z103z2 <= 0
x111x4x2 - 1z111z4z2 <= 0
x128x100x2 - 2z128z100z2 <= 0
x128x106x1 - 1z128z106z1 <= 0
x128x106x2 - 1z128z106z2 <= 0
x128x43x1 - 1z128z43z1 <= 0
x128x43x2 - 1z128z43z2 <= 0
x128x135x2 - 1z128z135z2 <= 0
x128x82x1 - 1z128z82z1 <= 0
x128x82x2 - 1z128z82z2 <= 0
x128x101x2 - 1z128z101z2 <= 0
x128x147x1 - 1z128z147z1 <= 0
x128x36x2 - 2z128z36z2 <= 0
x128x151x1 - 1z128z151z1 <= 0
x128x50x1 - 2z128z50z1 <= 0
x128x33x2 - 2z128z33z2 <= 0
x128x90x2 - 2z128z90z2 <= 0
x128x103x2 - 2z128z103z2 <= 0
x128x4x2 - 1z128z4z2 <= 0
x65x106x1 - 1z65z106z1 <= 0
x65x43x1 - 1z65z43z1 <= 0
x65x82x1 - 1z65z82z1 <= 0
x65x147x1 - 1z65z147z1 <= 0
x65x151x1 - 1z65z151z1 <= 0
x65x50x1 - 2z65z50z1 <= 0
x18x100x2 - 2z18z100z2 <= 0
x18x106x2 - 1z18z106z2 <= 0
x18x43x2 - 1z18z43z2 <= 0
x18x135x2 - 1z18z135z2 <= 0
x18x135x3 - 1z18z135z3 <= 0
x18x82x2 - 1z18z82z2 <= 0
x18x101x2 - 1z18z101z2 <= 0
x18x101x3 - 1z18z101z3 <= 0
x18x147x3 - 1z18z147z3 <= 0
x18x36x2 - 2z18z36z2 <= 0
x18x151x3 - 1z18z151z3 <= 0
x18x7x3 - 2z18z7z3 <= 0
x18x33x2 - 2z18z33z2 <= 0
x18x90x2 - 2z18z90z2 <= 0
x18x103x2 - 2z18z103z2 <= 0
x18x4x2 - 1z18z4z2 <= 0
x18x4x3 - 1z18z4z3 <= 0
x18x0x2 <= 1
x18x0x3 <= 1
x19x135x3 - 1z19z135z3 <= 0
x19x101x3 - 1z19z101z3 <= 0
x19x147x3 - 1z19z147z3 <= 0
x19x151x3 - 1z19z151z3 <= 0
x19x7x3 - 2z19z7z3 <= 0
x19x4x3 - 1z19z4z3 <= 0
x19x0x3 <= 2
x34x106x1 - 1z34z106z1 <= 0
x34x43x1 - 1z34z43z1 <= 0
x34x135x3 - 1z34z135z3 <= 0
x34x82x1 - 1z34z82z1 <= 0
x34x101x3 - 1z34z101z3 <= 0
x34x147x1 - 1z34z147z1 <= 0
x34x147x3 - 1z34z147z3 <= 0
x34x151x1 - 1z34z151z1 <= 0
x34x151x3 - 1z34z151z3 <= 0
x34x50x1 - 2z34z50z1 <= 0
x34x7x3 - 2z34z7z3 <= 0
x34x4x3 - 1z34z4z3 <= 0
x34x0x1 <= 1
x34x0x3 <= 1
x52x135x3 - 1z52z135z3 <= 0
x52x101x3 - 1z52z101z3 <= 0
x52x147x3 - 1z52z147z3 <= 0
x52x151x3 - 1z52z151z3 <= 0
x52x7x3 - 2z52z7z3 <= 0
x52x4x3 - 1z52z4z3 <= 0
x52x0x3 <= 2
x128x100x2 - 2z128z100z2 <= 0
x128x106x1 - 1z128z106z1 <= 0
x128x106x2 - 1z128z106z2 <= 0
x128x43x1 - 1z128z43z1 <= 0
x128x43x2 - 1z128z43z2 <= 0
x128x135x2 - 1z128z135z2 <= 0
x128x82x1 - 1z128z82z1 <= 0
x128x82x2 - 1z128z82z2 <= 0
x128x101x2 - 1z128z101z2 <= 0
x128x147x1 - 1z128z147z1 <= 0
x128x36x2 - 2z128z36z2 <= 0
x128x151x1 - 1z128z151z1 <= 0
x128x50x1 - 2z128z50z1 <= 0
x128x33x2 - 2z128z33z2 <= 0
x128x90x2 - 2z128z90z2 <= 0
x128x103x2 - 2z128z103z2 <= 0
x128x4x2 - 1z128z4z2 <= 0
x128x0x1 <= 1
x128x0x2 <= 1
x170x135x3 - 1z170z135z3 <= 0
x170x101x3 - 1z170z101z3 <= 0
x170x147x3 - 1z170z147z3 <= 0
x170x151x3 - 1z170z151z3 <= 0
x170x7x3 - 2z170z7z3 <= 0
x170x4x3 - 1z170z4z3 <= 0
x170x0x3 <= 2
x100x106x2 - 1z100z106z2 <= 0
x100x43x2 - 1z100z43z2 <= 0
x100x135x2 - 1z100z135z2 <= 0
x100x82x2 - 1z100z82z2 <= 0
x100x101x2 - 1z100z101z2 <= 0
x100x36x2 - 2z100z36z2 <= 0
x100x33x2 - 2z100z33z2 <= 0
x100x90x2 - 2z100z90z2 <= 0
x100x103x2 - 2z100z103z2 <= 0
x100x4x2 - 1z100z4z2 <= 0
x100x0x2 <= 2
x106x43x1 - 1z106z43z1 <= 0
x106x43x2 - 1z106z43z2 <= 0
x106x135x2 - 1z106z135z2 <= 0
x106x82x1 - 1z106z82z1 <= 0
x106x82x2 - 1z106z82z2 <= 0
x106x101x2 - 1z106z101z2 <= 0
x106x147x1 - 1z106z147z1 <= 0
x106x36x2 - 2z106z36z2 <= 0
x106x151x1 - 1z106z151z1 <= 0
x106x50x1 - 2z106z50z1 <= 0
x106x33x2 - 2z106z33z2 <= 0
x106x90x2 - 2z106z90z2 <= 0
x106x103x2 - 2z106z103z2 <= 0
x106x4x2 - 1z106z4z2 <= 0
x106x0x1 <= 1
x106x0x2 <= 1
x43x82x1 - 1z43z82z1 <= 0
x43x82x2 - 1z43z82z2 <= 0
x43x101x2 - 1z43z101z2 <= 0
x43x147x1 - 1z43z147z1 <= 0
x43x36x2 - 2z43z36z2 <= 0
x43x151x1 - 1z43z151z1 <= 0
x43x50x1 - 2z43z50z1 <= 0
x43x33x2 - 2z43z33z2 <= 0
x43x90x2 - 2z43z90z2 <= 0
x43x103x2 - 2z43z103z2 <= 0
x43x4x2 - 1z43z4z2 <= 0
x43x0x1 <= 1
x43x0x2 <= 1
x135x82x2 - 1z135z82z2 <= 0
x135x151x3 - 1z135z151z3 <= 0
x135x7x3 - 2z135z7z3 <= 0
x135x33x2 - 2z135z33z2 <= 0
x135x90x2 - 2z135z90z2 <= 0
x135x103x2 - 2z135z103z2 <= 0
x135x4x2 - 1z135z4z2 <= 0
x135x4x3 - 1z135z4z3 <= 0
x135x0x2 <= 1
x135x0x3 <= 1
x82x151x1 - 1z82z151z1 <= 0
x82x33x2 - 2z82z33z2 <= 0
x82x103x2 - 2z82z103z2 <= 0
x82x4x2 - 1z82z4z2 <= 0
x82x0x1 <= 1
x82x0x2 <= 1
x101x147x3 - 1z101z147z3 <= 0
x101x151x3 - 1z101z151z3 <= 0
x101x7x3 - 2z101z7z3 <= 0
x101x33x2 - 2z101z33z2 <= 0
x101x103x2 - 2z101z103z2 <= 0
x101x4x2 - 1z101z4z2 <= 0
x101x4x3 - 1z101z4z3 <= 0
x101x0x2 <= 1
x101x0x3 <= 1
x147x151x1 - 1z147z151z1 <= 0
x147x151x3 - 1z147z151z3 <= 0
x147x7x3 - 2z147z7z3 <= 0
x147x4x3 - 1z147z4z3 <= 0
x147x0x1 <= 1
x147x0x3 <= 1
x36x33x2 - 2z36z33z2 <= 0
x36x103x2 - 2z36z103z2 <= 0
x36x4x2 - 1z36z4z2 <= 0
x36x0x2 <= 2
x151x7x3 - 2z151z7z3 <= 0
x151x4x3 - 1z151z4z3 <= 0
x151x0x1 <= 1
x151x0x3 <= 1
x50x0x1 <= 2
x7x4x3 - 1z7z4z3 <= 0
x7x0x3 <= 2
x33x103x2 - 2z33z103z2 <= 0
x33x4x2 - 1z33z4z2 <= 0
x33x0x2 <= 2
x90x0x2 <= 2
x103x0x2 <= 2
x4x0x2 <= 1
x4x0x3 <= 1

Bounds
s136 = 5.199012
s105 = 5.230000
s2 = 5.970225
s34 = 5.832263
s18 = 5.550000
s19 = 5.730000
s111 = 5.730000
s128 = 5.952646
s65 = 5.850000
6.000000 <= s18 <= 6.550000
6.000000 <= s19 <= 6.730000
6.000000 <= s34 <= 6.420000
6.000000 <= s52 <= 6.160000
6.000000 <= s128 <= 6.830000
6.000000 <= s170 <= 6.660000
6.260000 <= s100 <= 7.260000
6.390000 <= s106 <= 7.390000
6.450000 <= s43 <= 7.450000
6.470000 <= s135 <= 7.470000
6.540000 <= s82 <= 7.540000
6.540000 <= s101 <= 7.540000
6.560000 <= s147 <= 7.560000
6.600000 <= s36 <= 7.600000
6.660000 <= s151 <= 7.660000
6.690000 <= s50 <= 7.690000
6.740000 <= s7 <= 7.740000
6.750000 <= s33 <= 7.750000
6.830000 <= s90 <= 7.830000
6.900000 <= s103 <= 7.900000
6.940000 <= s4 <= 7.940000

General
x136x18x2 x136x18x3 x136x19x3 x136x34x3 x136x128x2 x136x170x3 x136x100x2 x136x106x2 x136x43x2 x136x135x2 x136x135x3 x136x82x2 x136x101x2 x136x101x3 x136x147x3 x136x36x2 x136x151x3 x136x7x3 x136x33x2 x136x90x2 x136x103x2 x136x4x2 x136x4x3 
x105x18x2 x105x128x1 x105x128x2 x105x100x2 x105x106x1 x105x106x2 x105x43x1 x105x43x2 x105x135x2 x105x82x1 x105x82x2 x105x101x2 x105x147x1 x105x36x2 x105x151x1 x105x50x1 x105x33x2 x105x90x2 x105x103x2 x105x4x2 
x2x106x1 x2x43x1 x2x135x3 x2x82x1 x2x101x3 x2x147x1 x2x147x3 x2x151x1 x2x151x3 x2x50x1 x2x7x3 x2x4x3 
x34x106x1 x34x43x1 x34x135x3 x34x82x1 x34x101x3 x34x147x1 x34x147x3 x34x151x1 x34x151x3 x34x50x1 x34x7x3 x34x4x3 
x18x18x2 x18x18x3 x18x19x3 x18x128x2 x18x100x2 x18x106x2 x18x43x2 x18x135x2 x18x135x3 x18x82x2 x18x101x2 x18x101x3 x18x147x3 x18x36x2 x18x151x3 x18x7x3 x18x33x2 x18x90x2 x18x103x2 x18x4x2 x18x4x3 
x19x19x3 x19x135x3 x19x101x3 x19x147x3 x19x151x3 x19x7x3 x19x4x3 
x111x100x2 x111x106x2 x111x43x2 x111x135x2 x111x82x2 x111x101x2 x111x36x2 x111x33x2 x111x90x2 x111x103x2 x111x4x2 
x128x100x2 x128x106x1 x128x106x2 x128x43x1 x128x43x2 x128x135x2 x128x82x1 x128x82x2 x128x101x2 x128x147x1 x128x36x2 x128x151x1 x128x50x1 x128x33x2 x128x90x2 x128x103x2 x128x4x2 
x65x106x1 x65x43x1 x65x82x1 x65x147x1 x65x151x1 x65x50x1 
x18x100x2 x18x106x2 x18x43x2 x18x135x2 x18x135x3 x18x82x2 x18x101x2 x18x101x3 x18x147x3 x18x36x2 x18x151x3 x18x7x3 x18x33x2 x18x90x2 x18x103x2 x18x4x2 x18x4x3 x18x0x2 x18x0x3 
x19x135x3 x19x101x3 x19x147x3 x19x151x3 x19x7x3 x19x4x3 x19x0x3 
x34x106x1 x34x43x1 x34x135x3 x34x82x1 x34x101x3 x34x147x1 x34x147x3 x34x151x1 x34x151x3 x34x50x1 x34x7x3 x34x4x3 x34x0x1 x34x0x3 
x52x135x3 x52x101x3 x52x147x3 x52x151x3 x52x7x3 x52x4x3 x52x0x3 
x128x100x2 x128x106x1 x128x106x2 x128x43x1 x128x43x2 x128x135x2 x128x82x1 x128x82x2 x128x101x2 x128x147x1 x128x36x2 x128x151x1 x128x50x1 x128x33x2 x128x90x2 x128x103x2 x128x4x2 x128x0x1 x128x0x2 
x170x135x3 x170x101x3 x170x147x3 x170x151x3 x170x7x3 x170x4x3 x170x0x3 
x100x106x2 x100x43x2 x100x135x2 x100x82x2 x100x101x2 x100x36x2 x100x33x2 x100x90x2 x100x103x2 x100x4x2 x100x0x2 
x106x43x1 x106x43x2 x106x135x2 x106x82x1 x106x82x2 x106x101x2 x106x147x1 x106x36x2 x106x151x1 x106x50x1 x106x33x2 x106x90x2 x106x103x2 x106x4x2 x106x0x1 x106x0x2 
x43x82x1 x43x82x2 x43x101x2 x43x147x1 x43x36x2 x43x151x1 x43x50x1 x43x33x2 x43x90x2 x43x103x2 x43x4x2 x43x0x1 x43x0x2 
x135x82x2 x135x151x3 x135x7x3 x135x33x2 x135x90x2 x135x103x2 x135x4x2 x135x4x3 x135x0x2 x135x0x3 
x82x151x1 x82x33x2 x82x103x2 x82x4x2 x82x0x1 x82x0x2 
x101x147x3 x101x151x3 x101x7x3 x101x33x2 x101x103x2 x101x4x2 x101x4x3 x101x0x2 x101x0x3 
x147x151x1 x147x151x3 x147x7x3 x147x4x3 x147x0x1 x147x0x3 
x36x33x2 x36x103x2 x36x4x2 x36x0x2 
x151x7x3 x151x4x3 x151x0x1 x151x0x3 
x50x0x1 
x7x4x3 x7x0x3 
x33x103x2 x33x4x2 x33x0x2 
x90x0x2 
x103x0x2 
x4x0x2 x4x0x3 

Binaries
y18 y19 y34 y52 y128 y170 y100 y106 y43 y135 y82 y101 y147 y36 y151 y50 y7 y33 y90 y103 y4 
z136z18z2 z136z18z3 z136z19z3 z136z34z3 z136z128z2 z136z170z3 z136z100z2 z136z106z2 z136z43z2 z136z135z2 z136z135z3 z136z82z2 z136z101z2 z136z101z3 z136z147z3 z136z36z2 z136z151z3 z136z7z3 z136z33z2 z136z90z2 z136z103z2 z136z4z2 z136z4z3 
z105z18z2 z105z128z1 z105z128z2 z105z100z2 z105z106z1 z105z106z2 z105z43z1 z105z43z2 z105z135z2 z105z82z1 z105z82z2 z105z101z2 z105z147z1 z105z36z2 z105z151z1 z105z50z1 z105z33z2 z105z90z2 z105z103z2 z105z4z2 
z2z106z1 z2z43z1 z2z135z3 z2z82z1 z2z101z3 z2z147z1 z2z147z3 z2z151z1 z2z151z3 z2z50z1 z2z7z3 z2z4z3 
z34z106z1 z34z43z1 z34z135z3 z34z82z1 z34z101z3 z34z147z1 z34z147z3 z34z151z1 z34z151z3 z34z50z1 z34z7z3 z34z4z3 
z18z18z2 z18z18z3 z18z19z3 z18z128z2 z18z100z2 z18z106z2 z18z43z2 z18z135z2 z18z135z3 z18z82z2 z18z101z2 z18z101z3 z18z147z3 z18z36z2 z18z151z3 z18z7z3 z18z33z2 z18z90z2 z18z103z2 z18z4z2 z18z4z3 
z19z19z3 z19z135z3 z19z101z3 z19z147z3 z19z151z3 z19z7z3 z19z4z3 
z111z100z2 z111z106z2 z111z43z2 z111z135z2 z111z82z2 z111z101z2 z111z36z2 z111z33z2 z111z90z2 z111z103z2 z111z4z2 
z128z100z2 z128z106z1 z128z106z2 z128z43z1 z128z43z2 z128z135z2 z128z82z1 z128z82z2 z128z101z2 z128z147z1 z128z36z2 z128z151z1 z128z50z1 z128z33z2 z128z90z2 z128z103z2 z128z4z2 
z65z106z1 z65z43z1 z65z82z1 z65z147z1 z65z151z1 z65z50z1 
z18z100z2 z18z106z2 z18z43z2 z18z135z2 z18z135z3 z18z82z2 z18z101z2 z18z101z3 z18z147z3 z18z36z2 z18z151z3 z18z7z3 z18z33z2 z18z90z2 z18z103z2 z18z4z2 z18z4z3 
z19z135z3 z19z101z3 z19z147z3 z19z151z3 z19z7z3 z19z4z3 
z34z106z1 z34z43z1 z34z135z3 z34z82z1 z34z101z3 z34z147z1 z34z147z3 z34z151z1 z34z151z3 z34z50z1 z34z7z3 z34z4z3 
z52z135z3 z52z101z3 z52z147z3 z52z151z3 z52z7z3 z52z4z3 
z128z100z2 z128z106z1 z128z106z2 z128z43z1 z128z43z2 z128z135z2 z128z82z1 z128z82z2 z128z101z2 z128z147z1 z128z36z2 z128z151z1 z128z50z1 z128z33z2 z128z90z2 z128z103z2 z128z4z2 
z170z135z3 z170z101z3 z170z147z3 z170z151z3 z170z7z3 z170z4z3 
z100z106z2 z100z43z2 z100z135z2 z100z82z2 z100z101z2 z100z36z2 z100z33z2 z100z90z2 z100z103z2 z100z4z2 
z106z43z1 z106z43z2 z106z135z2 z106z82z1 z106z82z2 z106z101z2 z106z147z1 z106z36z2 z106z151z1 z106z50z1 z106z33z2 z106z90z2 z106z103z2 z106z4z2 
z43z82z1 z43z82z2 z43z101z2 z43z147z1 z43z36z2 z43z151z1 z43z50z1 z43z33z2 z43z90z2 z43z103z2 z43z4z2 
z135z82z2 z135z151z3 z135z7z3 z135z33z2 z135z90z2 z135z103z2 z135z4z2 z135z4z3 
z82z151z1 z82z33z2 z82z103z2 z82z4z2 
z101z147z3 z101z151z3 z101z7z3 z101z33z2 z101z103z2 z101z4z2 z101z4z3 
z147z151z1 z147z151z3 z147z7z3 z147z4z3 
z36z33z2 z36z103z2 z36z4z2 
z151z7z3 z151z4z3 

z7z4z3 
z33z103z2 z33z4z2 




End